
p cnf 10 20
-1 -4 -9 0

c This Formular is generated by mcnf
c

1 4 -9 0
4 10 -1 0
7 -5 4 0
-2 -7 6 0
10 1 8 0
2 -9 10 0
-10 -2 4 0
-2 7 8 0
-6 4 5 0
2 -3 -4 0
8 5 9 0
-6 -4 7 0
-2 10 -6 0
8 -3 4 0
-9 5 10 0
10 -6 -3 0
-8 -1 -3 0
-3 7 2 0
7 8 5 0
%
0
